GeneratedTests/Random_7/Random_7_18.tsp
NAME: Random_7_18
TYPE: TSP
DIMENSION: 7
EDGE_WEIGHT_TYPE: EUC_2D
NODE_COORD_SECTION
1 14.178433 20.338472
2 10.199928 14.648199
3 7.893897 0.48390877
4 4.777667 7.3210287
5 6.552251 14.54221
6 19.905783 7.900376
7 9.81546 18.668346
EOF
