GeneratedTests/Random_7/Random_7_18.txt
NAME: Random_7_18
TYPE: TSP
DIMENSION: 7
EDGE_WEIGHT_TYPE: EUC_2D
NODE_COORD_SECTION
1 8.0442095 9.041381
2 10.593678 1.4931989
3 14.657225 2.2546854
4 10.911159 10.866762
5 14.1838875 12.300066
6 2.286944 19.788315
7 4.1117225 14.579856
EOF
